(set-logic QF_S)
(declare-fun var_0xINPUT_32898 () String)
(assert (and (= (len var_0xINPUT_32898) 0) (= (len var_0xINPUT_32898) 0) (not (= var_0xINPUT_32898 "K9BOAGJDFi"))))
(check-sat var_0xINPUT_32898)